 vasp.5.4.1 05Feb16 (build Oct 12 2016 17:31:35) complex

 executed on           IFC91_ompi date 2018.05.23  10:22:31

 INCAR:
 POTCAR:    PAW_PBE C 08Apr2002
 POTCAR:    PAW_PBE Si 05Jan2001
 POTCAR:    PAW_PBE C 08Apr2002
   VRHFIN =C: s2p2

   TITEL  = PAW_PBE C 08Apr2002
   POMASS =   12.011; ZVAL   =    4.000    mass and valenz
   ENMAX  =  400.000; ENMIN  =  300.000 eV

 POTCAR:    PAW_PBE Si 05Jan2001
   VRHFIN =Si: s2p2

   TITEL  = PAW_PBE Si 05Jan2001
   POMASS =   28.085; ZVAL   =    4.000    mass and valenz
   ENMAX  =  245.345; ENMIN  =  184.009 eV

 Optimization of the real space projectors (new method)

 maximal supplied QI-value         = 25.13
 optimisation between [QCUT,QGAM] = [ 10.05, 20.36] = [ 28.30,116.06] Ry
 Optimized for a Real-space Cutoff    1.30 Angstroem

   l    n(q)    QCUT    max X(q) W(low)/X(q) W(high)/X(q)  e(spline)
   0      8    10.053   115.676    0.49E-03    0.72E-03    0.18E-06
   0      8    10.053    87.132    0.49E-03    0.71E-03    0.18E-06
   1      7    10.053     4.429    0.32E-03    0.31E-03    0.18E-06
   1      7    10.053     2.733    0.23E-03    0.19E-03    0.20E-06
 Optimization of the real space projectors (new method)

 maximal supplied QI-value         = 19.84
 optimisation between [QCUT,QGAM] = [ 10.12, 20.44] = [ 28.68,116.96] Ry
 Optimized for a Real-space Cutoff    1.23 Angstroem

   l    n(q)    QCUT    max X(q) W(low)/X(q) W(high)/X(q)  e(spline)
   0      7    10.119   159.560    0.56E-04    0.22E-03    0.45E-07
   0      7    10.119   115.863    0.56E-04    0.21E-03    0.45E-07
   1      7    10.119    88.339    0.34E-03    0.49E-03    0.11E-06
   1      7    10.119    48.592    0.33E-03    0.48E-03    0.11E-06
  PAW_PBE C 08Apr2002                   :
  PAW_PBE Si 05Jan2001                  :

 POSCAR: SiC Unit Cell
  positions in direct lattice
 exchange correlation table for  LEXCH =        8
   RHO(1)=    0.500       N(1)  =     2000
   RHO(2)=  100.500       N(2)  =     4000

 ion  position               nearest neighbor table
   1  0.000  0.000  0.000- 109 1.89 136 1.89 168 1.89 180 1.89
   2  0.167  0.167  0.000- 110 1.89 150 1.89 152 1.89 109 1.89
   3  0.167  0.000  0.167- 112 1.89 124 1.89 126 1.89 109 1.89
   4  0.000  0.167  0.167- 111 1.89 116 1.89 120 1.89 109 1.89
   5  0.333  0.000  0.000- 124 1.89 152 1.89 113 1.89 204 1.89
   6  0.667  0.000  0.000- 114 1.89 208 1.89 166 1.89 134 1.89
   7  0.500  0.167  0.000- 115 1.89 162 1.89 113 1.89 166 1.89
   8  0.833  0.167  0.000- 164 1.89 116 1.89 114 1.89 168 1.89
   9  0.500  0.000  0.167- 119 1.89 138 1.89 134 1.89 113 1.89
  10  0.833  0.000  0.167- 140 1.89 120 1.89 114 1.89 136 1.89
  11  0.333  0.167  0.167- 110 1.89 112 1.89 117 1.89 113 1.89
  12  0.667  0.167  0.167- 118 1.89 115 1.89 114 1.89 119 1.89
  13  0.000  0.333  0.000- 116 1.89 150 1.89 121 1.89 214 1.89
  14  0.000  0.667  0.000- 122 1.89 216 1.89 178 1.89 135 1.89
  15  0.167  0.500  0.000- 123 1.89 182 1.89 178 1.89 121 1.89
  16  0.167  0.833  0.000- 184 1.89 124 1.89 122 1.89 180 1.89
  17  0.167  0.333  0.167- 110 1.89 111 1.89 127 1.89 121 1.89
  18  0.167  0.667  0.167- 128 1.89 123 1.89 125 1.89 122 1.89
  19  0.000  0.500  0.167- 125 1.89 143 1.89 135 1.89 121 1.89
  20  0.000  0.833  0.167- 144 1.89 126 1.89 122 1.89 136 1.89
  21  0.333  0.333  0.000- 110 1.89 162 1.89 182 1.89 129 1.89
  22  0.333  0.667  0.000- 184 1.89 130 1.89 123 1.89 202 1.89
  23  0.667  0.333  0.000- 164 1.89 131 1.89 115 1.89 210 1.89
  24  0.667  0.667  0.000- 132 1.89 206 1.89 212 1.89 133 1.89
  25  0.500  0.500  0.000- 129 1.89 133 1.89 202 1.89 210 1.89
  26  0.500  0.833  0.000- 130 1.89 212 1.89 204 1.89 134 1.89
  27  0.833  0.500  0.000- 131 1.89 206 1.89 135 1.89 214 1.89
  28  0.833  0.833  0.000- 132 1.89 208 1.89 216 1.89 136 1.89
  29  0.500  0.333  0.167- 117 1.89 115 1.89 141 1.89 129 1.89
  30  0.500  0.667  0.167- 142 1.89 137 1.89 130 1.89 133 1.89
  31  0.833  0.333  0.167- 118 1.89 116 1.89 131 1.89 143 1.89
  32  0.833  0.667  0.167- 132 1.89 139 1.89 144 1.89 135 1.89
  33  0.333  0.500  0.167- 127 1.89 123 1.89 137 1.89 129 1.89
  34  0.333  0.833  0.167- 128 1.89 124 1.89 130 1.89 138 1.89
  35  0.667  0.500  0.167- 139 1.89 131 1.89 141 1.89 133 1.89
  36  0.667  0.833  0.167- 132 1.89 140 1.89 142 1.89 134 1.89
  37  0.000  0.000  0.333- 120 1.89 126 1.89 145 1.89 199 1.89
  38  0.000  0.000  0.667- 146 1.89 200 1.89 179 1.89 167 1.89
  39  0.167  0.167  0.333- 111 1.89 112 1.89 147 1.89 145 1.89
  40  0.167  0.167  0.667- 148 1.89 146 1.89 149 1.89 151 1.89
  41  0.167  0.000  0.500- 151 1.89 175 1.89 145 1.89 179 1.89
  42  0.167  0.000  0.833- 176 1.89 152 1.89 146 1.89 180 1.89
  43  0.000  0.167  0.500- 149 1.89 159 1.89 145 1.89 167 1.89
  44  0.000  0.167  0.833- 160 1.89 150 1.89 146 1.89 168 1.89
  45  0.333  0.000  0.333- 112 1.89 138 1.89 175 1.89 153 1.89
  46  0.333  0.000  0.667- 176 1.89 154 1.89 151 1.89 203 1.89
  47  0.667  0.000  0.333- 140 1.89 119 1.89 155 1.89 195 1.89
  48  0.667  0.000  0.667- 156 1.89 196 1.89 207 1.89 165 1.89
  49  0.500  0.167  0.333- 117 1.89 119 1.89 157 1.89 153 1.89
  50  0.500  0.167  0.667- 158 1.89 154 1.89 161 1.89 165 1.89
  51  0.833  0.167  0.333- 118 1.89 120 1.89 155 1.89 159 1.89
  52  0.833  0.167  0.667- 156 1.89 160 1.89 163 1.89 167 1.89
  53  0.500  0.000  0.500- 153 1.89 165 1.89 195 1.89 203 1.89
  54  0.500  0.000  0.833- 154 1.89 196 1.89 166 1.89 204 1.89
  55  0.833  0.000  0.500- 155 1.89 207 1.89 199 1.89 167 1.89
  56  0.833  0.000  0.833- 156 1.89 200 1.89 208 1.89 168 1.89
  57  0.333  0.167  0.500- 147 1.89 151 1.89 161 1.89 153 1.89
  58  0.333  0.167  0.833- 148 1.89 152 1.89 154 1.89 162 1.89
  59  0.667  0.167  0.500- 163 1.89 157 1.89 155 1.89 165 1.89
  60  0.667  0.167  0.833- 156 1.89 158 1.89 164 1.89 166 1.89
[...]
  95  0.500  0.667  0.500- 187 1.89 211 1.89 201 1.89 193 1.89
  96  0.500  0.667  0.833- 188 1.89 194 1.89 212 1.89 202 1.89
  97  0.833  0.333  0.500- 163 1.89 159 1.89 189 1.89 213 1.89
  98  0.833  0.333  0.833- 160 1.89 164 1.89 190 1.89 214 1.89
  99  0.833  0.667  0.500- 191 1.89 205 1.89 215 1.89 197 1.89
 100  0.833  0.667  0.833- 192 1.89 198 1.89 206 1.89 216 1.89
 101  0.333  0.500  0.500- 173 1.89 181 1.89 185 1.89 201 1.89
 102  0.333  0.500  0.833- 174 1.89 182 1.89 186 1.89 202 1.89
 103  0.333  0.833  0.500- 183 1.89 175 1.89 187 1.89 203 1.89
 104  0.333  0.833  0.833- 176 1.89 184 1.89 188 1.89 204 1.89
 105  0.667  0.500  0.500- 189 1.89 205 1.89 193 1.89 209 1.89
 106  0.667  0.500  0.833- 190 1.89 194 1.89 206 1.89 210 1.89
 107  0.667  0.833  0.500- 191 1.89 207 1.89 211 1.89 195 1.89
 108  0.667  0.833  0.833- 192 1.89 196 1.89 208 1.89 212 1.89
 109  0.083  0.083  0.083-   1 1.89   2 1.89   3 1.89   4 1.89 136 3.08 168 3.08 180 3.08 126 3.08
                           116 3.08 150 3.08 152 3.08 120 3.08 124 3.08 110 3.08 111 3.08 112 3.08
 110  0.250  0.250  0.083-   2 1.89  21 1.89  17 1.89  11 1.89 150 3.08 152 3.08 162 3.08 182 3.08
                           117 3.08 121 3.08 127 3.08 129 3.08 109 3.08 111 3.08 112 3.08 113 3.08
 111  0.083  0.250  0.250-   4 1.89  61 1.89  39 1.89  17 1.89 116 3.08 120 3.08 143 3.08 159 3.08
                           110 3.08 121 3.08 127 3.08 112 3.08 145 3.08 147 3.08 109 3.08 169 3.08
 112  0.250  0.083  0.250-   3 1.89  45 1.89  39 1.89  11 1.89 124 3.08 126 3.08 138 3.08 175 3.08
                           117 3.08 109 3.08 110 3.08 111 3.08 145 3.08 147 3.08 153 3.08 113 3.08
 113  0.417  0.083  0.083-   5 1.89   7 1.89   9 1.89  11 1.89 134 3.08 166 3.08 204 3.08 115 3.08
                           138 3.08 152 3.08 162 3.08 119 3.08 124 3.08 117 3.08 112 3.08 110 3.08
 114  0.750  0.083  0.083-   6 1.89   8 1.89  10 1.89  12 1.89 208 3.08 136 3.08 140 3.08 164 3.08
                           166 3.08 168 3.08 134 3.08 118 3.08 119 3.08 120 3.08 115 3.08 116 3.08
 115  0.583  0.250  0.083-   7 1.89  23 1.89  29 1.89  12 1.89 162 3.08 117 3.08 129 3.08 113 3.08
                           164 3.08 166 3.08 210 3.08 141 3.08 118 3.08 119 3.08 114 3.08 131 3.08
 116  0.917  0.250  0.083-  13 1.89   8 1.89   4 1.89  31 1.89 150 3.08 111 3.08 121 3.08 109 3.08
                           164 3.08 168 3.08 214 3.08 143 3.08 118 3.08 120 3.08 114 3.08 131 3.08
 117  0.417  0.250  0.250-  29 1.89  49 1.89  11 1.89  77 1.89 115 3.08 119 3.08 141 3.08 157 3.08
                           112 3.08 127 3.08 129 3.08 113 3.08 147 3.08 153 3.08 110 3.08 185 3.08
 118  0.750  0.250  0.250-  12 1.89  31 1.89  51 1.89  81 1.89 114 3.08 115 3.08 116 3.08 119 3.08
                           120 3.08 131 3.08 141 3.08 143 3.08 155 3.08 157 3.08 159 3.08 189 3.08
 119  0.583  0.083  0.250-   9 1.89  47 1.89  49 1.89  12 1.89 138 3.08 117 3.08 134 3.08 113 3.08
                           140 3.08 153 3.08 195 3.08 118 3.08 115 3.08 155 3.08 157 3.08 114 3.08
 120  0.917  0.083  0.250-  37 1.89  10 1.89   4 1.89  51 1.89 126 3.08 111 3.08 109 3.08 136 3.08
                           140 3.08 145 3.08 199 3.08 118 3.08 114 3.08 155 3.08 159 3.08 116 3.08
 121  0.083  0.417  0.083-  13 1.89  15 1.89  19 1.89  17 1.89 135 3.08 178 3.08 214 3.08 116 3.08
                           143 3.08 150 3.08 123 3.08 182 3.08 125 3.08 111 3.08 110 3.08 127 3.08
 122  0.083  0.750  0.083-  14 1.89  16 1.89  20 1.89  18 1.89 216 3.08 136 3.08 144 3.08 178 3.08
                           180 3.08 184 3.08 135 3.08 125 3.08 126 3.08 128 3.08 123 3.08 124 3.08
 123  0.250  0.583  0.083-  15 1.89  22 1.89  33 1.89  18 1.89 182 3.08 127 3.08 129 3.08 178 3.08
                           121 3.08 184 3.08 202 3.08 137 3.08 122 3.08 128 3.08 125 3.08 130 3.08
 124  0.250  0.917  0.083-   5 1.89   3 1.89  16 1.89  34 1.89 152 3.08 112 3.08 113 3.08 109 3.08
                           180 3.08 184 3.08 204 3.08 138 3.08 122 3.08 126 3.08 128 3.08 130 3.08
 125  0.083  0.583  0.250-  19 1.89  63 1.89  65 1.89  18 1.89 143 3.08 127 3.08 135 3.08 121 3.08
                           144 3.08 169 3.08 197 3.08 128 3.08 123 3.08 171 3.08 173 3.08 122 3.08
 126  0.083  0.917  0.250-  37 1.89  20 1.89   3 1.89  67 1.89 120 3.08 112 3.08 109 3.08 136 3.08
                           144 3.08 145 3.08 199 3.08 124 3.08 128 3.08 171 3.08 175 3.08 122 3.08
 127  0.250  0.417  0.250-  33 1.89  65 1.89  17 1.89  77 1.89 123 3.08 125 3.08 137 3.08 173 3.08
                           110 3.08 111 3.08 129 3.08 117 3.08 147 3.08 169 3.08 121 3.08 185 3.08
 128  0.250  0.750  0.250-  18 1.89  34 1.89  67 1.89  79 1.89 122 3.08 123 3.08 124 3.08 125 3.08
                           126 3.08 130 3.08 137 3.08 138 3.08 171 3.08 173 3.08 175 3.08 187 3.08
 129  0.417  0.417  0.083-  25 1.89  21 1.89  29 1.89  33 1.89 133 3.08 202 3.08 210 3.08 137 3.08
                           141 3.08 162 3.08 182 3.08 123 3.08 115 3.08 110 3.08 127 3.08 117 3.08
 130  0.417  0.750  0.083-  26 1.89  22 1.89  30 1.89  34 1.89 212 3.08 134 3.08 142 3.08 184 3.08
                           202 3.08 204 3.08 133 3.08 128 3.08 123 3.08 124 3.08 137 3.08 138 3.08
 131  0.750  0.417  0.083-  27 1.89  23 1.89  35 1.89  31 1.89 206 3.08 135 3.08 139 3.08 164 3.08
[...]

  length of vectors
    13.080000000 13.080000000 13.080000000     0.076452599  0.076452599  0.076452599

 FORCES acting on ions
    electron-ion (+dipol)            ewald-force                    non-local-force                 convergence-correction
   0.299E-15 0.200E-14 -.394E-07   0.391E-13 0.338E-13 -.213E-13   -.169E-20 0.275E-20 0.868E-20   0.556E-13 -.108E-12 -.171E-12
   -.139E-02 -.139E-02 0.347E-06   -.466E-03 -.466E-03 -.872E-08   -.824E-21 0.639E-20 0.233E-20   0.146E-06 0.146E-06 0.237E-07
   -.139E-02 0.402E-06 -.139E-02   -.466E-03 -.872E-08 -.466E-03   -.360E-20 0.286E-20 0.254E-20   0.146E-06 0.237E-07 0.146E-06
   0.402E-06 -.139E-02 -.139E-02   -.872E-08 -.466E-03 -.466E-03   -.381E-20 0.265E-21 -.166E-19   0.237E-07 0.146E-06 0.146E-06
   0.141E-02 0.144E-11 -.605E-07   0.466E-03 0.204E-13 0.359E-13   -.847E-21 0.191E-20 0.201E-19   -.209E-06 -.405E-13 -.142E-12
   -.141E-02 -.144E-11 -.184E-07   -.466E-03 0.471E-13 0.799E-14   0.958E-20 0.154E-19 0.397E-19   0.209E-06 -.632E-13 -.169E-12
   -.136E-11 -.141E-02 -.184E-07   0.135E-13 -.466E-03 -.613E-13   -.235E-19 0.249E-19 0.381E-20   -.781E-13 0.209E-06 -.554E-13
   0.139E-02 -.139E-02 -.441E-06   0.466E-03 -.466E-03 0.872E-08   -.741E-21 -.704E-20 0.300E-19   -.146E-06 0.146E-06 -.237E-07
   0.886E-13 -.102E-13 -.141E-02   0.280E-13 0.153E-13 -.466E-03   0.136E-19 0.106E-20 -.301E-19   -.101E-12 -.139E-13 0.209E-06
   0.139E-02 -.402E-06 -.139E-02   0.466E-03 0.872E-08 -.466E-03   0.148E-20 0.678E-20 -.424E-21   -.146E-06 -.237E-07 0.146E-06
   0.136E-02 -.136E-02 -.136E-02   0.466E-03 -.466E-03 -.466E-03   -.858E-20 0.179E-19 0.122E-19   -.190E-06 0.190E-06 0.190E-06
   -.136E-02 -.136E-02 -.136E-02   -.466E-03 -.466E-03 -.466E-03   0.152E-19 -.120E-19 -.217E-19   0.166E-06 0.166E-06 0.166E-06
   0.145E-11 0.141E-02 -.605E-07   0.155E-14 0.466E-03 0.464E-13   0.258E-19 -.360E-20 0.375E-19   -.129E-13 -.209E-06 -.126E-13
   -.145E-11 -.141E-02 -.184E-07   -.284E-13 -.466E-03 -.142E-13   -.667E-20 0.109E-19 0.911E-20   -.464E-13 0.209E-06 -.319E-13
   -.141E-02 -.127E-11 -.184E-07   -.466E-03 0.888E-15 -.355E-13   -.651E-20 -.173E-19 0.378E-19   0.209E-06 0.377E-13 0.363E-13
   -.139E-02 0.139E-02 -.441E-06   -.466E-03 0.466E-03 0.872E-08   -.104E-19 0.104E-19 0.247E-19   0.146E-06 -.146E-06 -.237E-07
   -.136E-02 0.136E-02 -.136E-02   -.466E-03 0.466E-03 -.466E-03   -.132E-20 0.233E-20 -.121E-19   0.190E-06 -.190E-06 0.190E-06
   -.136E-02 -.136E-02 -.136E-02   -.466E-03 -.466E-03 -.466E-03   0.175E-19 -.307E-20 -.312E-19   0.166E-06 0.166E-06 0.166E-06
   0.453E-14 0.825E-13 -.141E-02   0.155E-13 -.124E-13 -.466E-03   0.212E-19 -.241E-19 -.362E-19   -.528E-13 0.832E-13 0.209E-06
   -.402E-06 0.139E-02 -.139E-02   0.872E-08 0.466E-03 -.466E-03   -.157E-19 0.112E-19 -.254E-20   -.237E-07 -.146E-06 0.146E-06
   0.139E-02 0.139E-02 0.378E-06   0.466E-03 0.466E-03 -.872E-08   -.762E-20 0.784E-20 0.656E-20   -.146E-06 -.146E-06 0.237E-07
   0.139E-02 -.139E-02 -.441E-06   0.466E-03 -.466E-03 0.872E-08   0.254E-20 0.476E-20 0.361E-19   -.146E-06 0.146E-06 -.237E-07
   -.139E-02 0.139E-02 -.441E-06   -.466E-03 0.466E-03 0.872E-08   -.566E-20 0.529E-20 0.614E-20   0.146E-06 -.146E-06 -.237E-07
   -.139E-02 -.139E-02 0.347E-06   -.466E-03 -.466E-03 -.872E-08   -.295E-20 0.139E-19 -.942E-20   0.146E-06 0.146E-06 0.237E-07
   0.868E-13 -.139E-11 -.394E-07   0.482E-13 0.377E-13 0.108E-12   0.720E-20 0.108E-19 0.635E-20   0.200E-13 0.255E-14 0.916E-13
   0.153E-11 0.141E-02 -.605E-07   0.351E-13 0.466E-03 0.759E-13   0.339E-20 0.212E-21 0.352E-19   -.595E-13 -.209E-06 -.119E-12
   0.141E-02 0.225E-11 -.605E-07   0.466E-03 0.444E-13 0.105E-12   -.231E-19 0.678E-20 -.868E-20   -.209E-06 0.745E-13 0.486E-13
   0.139E-02 0.139E-02 0.378E-06   0.466E-03 0.466E-03 -.872E-08   0.148E-20 0.614E-20 0.191E-20   -.146E-06 -.146E-06 0.237E-07
   -.402E-06 0.139E-02 -.139E-02   0.872E-08 0.466E-03 -.466E-03   -.144E-19 0.614E-20 -.424E-20   -.237E-07 -.146E-06 0.146E-06
   0.402E-06 -.139E-02 -.139E-02   -.872E-08 -.466E-03 -.466E-03   -.381E-20 0.678E-20 -.234E-19   0.237E-07 0.146E-06 0.146E-06
   0.136E-02 0.136E-02 -.136E-02   0.466E-03 0.466E-03 -.466E-03   0.205E-19 -.155E-19 -.167E-19   -.166E-06 -.166E-06 0.166E-06
   0.136E-02 -.136E-02 -.136E-02   0.466E-03 -.466E-03 -.466E-03   -.731E-20 0.160E-19 0.328E-20   -.190E-06 0.190E-06 0.190E-06
   0.139E-02 -.402E-06 -.139E-02   0.466E-03 0.872E-08 -.466E-03   0.191E-20 -.148E-20 -.294E-19   -.146E-06 -.237E-07 0.146E-06
   0.136E-02 0.136E-02 -.136E-02   0.466E-03 0.466E-03 -.466E-03   0.233E-20 -.133E-19 -.352E-19   -.166E-06 -.166E-06 0.166E-06
   -.139E-02 0.402E-06 -.139E-02   -.466E-03 -.872E-08 -.466E-03   -.124E-19 0.114E-19 -.150E-19   0.146E-06 0.237E-07 0.146E-06
   -.136E-02 0.136E-02 -.136E-02   -.466E-03 0.466E-03 -.466E-03   0.397E-20 0.328E-20 -.263E-19   0.190E-06 -.190E-06 0.190E-06
   0.401E-14 0.276E-14 0.141E-02   0.224E-13 0.431E-13 0.466E-03   -.371E-20 0.752E-20 -.150E-19   0.507E-13 -.149E-12 -.209E-06
   0.447E-14 -.151E-14 -.141E-02   0.191E-13 0.533E-14 -.466E-03   0.150E-19 -.466E-20 -.265E-19   0.153E-13 -.173E-12 0.209E-06
   -.136E-02 -.136E-02 0.136E-02   -.466E-03 -.466E-03 0.466E-03   -.145E-20 -.438E-20 -.205E-19   0.190E-06 0.190E-06 -.190E-06
   -.136E-02 -.136E-02 -.136E-02   -.466E-03 -.466E-03 -.466E-03   0.641E-20 -.128E-19 -.220E-19   0.166E-06 0.166E-06 0.166E-06
   -.141E-02 -.145E-11 -.184E-07   -.466E-03 -.158E-13 0.222E-13   0.138E-20 -.125E-19 -.381E-20   0.209E-06 -.131E-12 0.219E-12
   -.139E-02 -.402E-06 0.139E-02   -.466E-03 0.872E-08 0.466E-03   -.171E-20 0.688E-20 0.134E-19   0.146E-06 -.237E-07 -.146E-06
   -.145E-11 -.141E-02 -.184E-07   0.272E-13 -.466E-03 -.124E-13   0.741E-21 0.217E-20 0.403E-19   0.526E-13 0.209E-06 0.177E-12
   -.402E-06 -.139E-02 0.139E-02   0.872E-08 -.466E-03 0.466E-03   0.101E-19 -.114E-19 0.304E-19   -.237E-07 0.146E-06 -.146E-06
   0.139E-02 0.402E-06 0.139E-02   0.466E-03 -.872E-08 0.466E-03   0.000E+00 -.159E-19 -.125E-19   -.146E-06 0.237E-07 -.146E-06
   0.139E-02 -.402E-06 -.139E-02   0.466E-03 0.872E-08 -.466E-03   0.212E-20 -.424E-20 -.212E-20   -.146E-06 -.237E-07 0.146E-06
   -.139E-02 -.402E-06 0.139E-02   -.466E-03 0.872E-08 0.466E-03   -.874E-20 0.233E-20 -.265E-20   0.146E-06 -.237E-07 -.146E-06
   -.139E-02 0.402E-06 -.139E-02   -.466E-03 -.872E-08 -.466E-03   0.318E-20 -.286E-20 -.157E-19   0.146E-06 0.237E-07 0.146E-06
   -.402E-06 -.139E-02 0.139E-02   0.872E-08 -.466E-03 0.466E-03   0.143E-19 -.131E-19 0.280E-20   -.237E-07 0.146E-06 -.146E-06
   0.402E-06 -.139E-02 -.139E-02   -.872E-08 -.466E-03 -.466E-03   -.119E-19 0.662E-20 0.147E-19   0.237E-07 0.146E-06 0.146E-06
   0.136E-02 -.136E-02 0.136E-02   0.466E-03 -.466E-03 0.466E-03   -.109E-19 0.213E-21 -.163E-20   -.166E-06 0.166E-06 -.166E-06
   0.136E-02 -.136E-02 -.136E-02   0.466E-03 -.466E-03 -.466E-03   -.784E-20 -.102E-19 0.318E-21   -.190E-06 0.190E-06 0.190E-06
   0.748E-13 0.591E-14 -.394E-07   0.646E-13 0.380E-13 -.221E-13   -.402E-20 -.123E-19 0.318E-20   -.699E-13 -.101E-12 0.213E-12
   0.822E-13 0.301E-14 0.141E-02   0.455E-13 -.977E-14 0.466E-03   0.529E-21 0.265E-20 0.140E-19   -.846E-13 -.726E-13 -.209E-06
   0.141E-02 0.145E-11 -.605E-07   0.466E-03 0.462E-13 0.298E-13   -.182E-19 -.424E-21 0.572E-20   -.209E-06 -.197E-12 0.246E-12
   0.139E-02 0.402E-06 0.139E-02   0.466E-03 -.872E-08 0.466E-03   0.868E-20 -.794E-20 0.236E-19   -.146E-06 0.237E-07 -.146E-06
   0.139E-02 -.139E-02 -.441E-06   0.466E-03 -.466E-03 0.872E-08   0.466E-20 -.163E-19 -.985E-20   -.146E-06 0.146E-06 -.237E-07
   0.136E-02 -.136E-02 0.136E-02   0.466E-03 -.466E-03 0.466E-03   -.110E-19 -.140E-20 -.105E-19   -.166E-06 0.166E-06 -.166E-06
   -.139E-02 -.139E-02 0.347E-06   -.466E-03 -.466E-03 -.872E-08   -.107E-20 0.245E-20 -.815E-20   0.146E-06 0.146E-06 0.237E-07
   -.136E-02 -.136E-02 0.136E-02   -.466E-03 -.466E-03 0.466E-03   -.248E-20 0.869E-21 -.626E-20   0.190E-06 0.190E-06 -.190E-06
[...]
   -.242E-04 -.242E-04 0.243E-04   -.466E-03 -.466E-03 0.466E-03   0.562E-19 -.245E-19 -.188E-19   -.133E-06 -.133E-06 0.133E-06
   -.174E-04 -.174E-04 -.173E-04   -.466E-03 -.466E-03 -.466E-03   -.107E-18 0.106E-18 -.779E-19   -.165E-06 -.165E-06 -.165E-06
   -.165E-06 0.205E-04 0.206E-04   0.872E-08 0.466E-03 0.466E-03   0.368E-19 -.335E-19 0.741E-19   0.318E-07 0.131E-06 0.131E-06
   0.165E-06 0.205E-04 -.204E-04   -.872E-08 0.466E-03 -.466E-03   -.254E-19 -.621E-19 -.107E-19   -.318E-07 0.131E-06 -.131E-06
   0.165E-06 -.205E-04 0.206E-04   -.872E-08 -.466E-03 0.466E-03   0.364E-19 -.385E-20 -.913E-19   -.318E-07 -.131E-06 0.131E-06
   -.165E-06 -.205E-04 -.204E-04   0.872E-08 -.466E-03 -.466E-03   0.944E-19 -.212E-20 0.635E-20   0.318E-07 -.131E-06 -.131E-06
   0.174E-04 -.174E-04 0.175E-04   0.466E-03 -.466E-03 0.466E-03   0.105E-18 -.967E-19 0.969E-19   0.165E-06 -.165E-06 0.165E-06
   0.242E-04 -.242E-04 -.241E-04   0.466E-03 -.466E-03 -.466E-03   0.635E-20 -.805E-20 0.267E-19   0.133E-06 -.133E-06 -.133E-06
   0.205E-04 -.165E-06 0.206E-04   0.466E-03 0.872E-08 0.466E-03   -.309E-19 0.101E-18 -.919E-19   0.131E-06 0.318E-07 0.131E-06
   0.205E-04 0.165E-06 -.204E-04   0.466E-03 -.872E-08 -.466E-03   0.759E-19 -.920E-19 -.776E-20   0.131E-06 -.318E-07 -.131E-06
   -.242E-04 -.242E-04 0.243E-04   -.466E-03 -.466E-03 0.466E-03   0.393E-19 -.157E-19 -.651E-20   -.133E-06 -.133E-06 0.133E-06
   -.174E-04 -.174E-04 -.173E-04   -.466E-03 -.466E-03 -.466E-03   -.870E-19 0.727E-19 -.881E-19   -.165E-06 -.165E-06 -.165E-06
   -.205E-04 0.165E-06 0.206E-04   -.466E-03 -.872E-08 0.466E-03   0.503E-19 0.847E-20 0.857E-19   -.131E-06 -.318E-07 0.131E-06
   -.205E-04 -.165E-06 -.204E-04   -.466E-03 0.872E-08 -.466E-03   0.445E-19 -.220E-19 -.127E-20   -.131E-06 0.318E-07 -.131E-06
   0.705E-11 -.171E-10 0.543E-05   0.127E-12 -.240E-12 0.153E-11   0.528E-18 -.137E-17 0.121E-17   -.443E-12 -.265E-12 0.217E-10

 POSITION                                       TOTAL-FORCE (eV/Angst)
      0.00000      0.00000      0.00000         0.000000     -0.000000     -0.000000
      2.18000      2.18000      0.00000        -0.000000      0.000000     -0.000000
      2.18000      0.00000      2.18000        -0.000000     -0.000000     -0.000000
      0.00000      2.18000      2.18000         0.000000     -0.000000      0.000000
      4.36000      0.00000      0.00000         0.000000      0.000000      0.000000
      8.72000      0.00000      0.00000        -0.000000     -0.000000     -0.000000
      6.54000      2.18000      0.00000        -0.000000      0.000000      0.000000
     10.90000      2.18000      0.00000        -0.000000     -0.000000     -0.000000
      6.54000      0.00000      2.18000        -0.000000     -0.000000      0.000000
     10.90000      0.00000      2.18000         0.000000      0.000000     -0.000000
      4.36000      2.18000      2.18000        -0.000000      0.000000     -0.000000
      8.72000      2.18000      2.18000        -0.000000     -0.000000      0.000000
      0.00000      4.36000      0.00000        -0.000000      0.000000     -0.000000
      0.00000      8.72000      0.00000        -0.000000      0.000000      0.000000
      2.18000      6.54000      0.00000        -0.000000     -0.000000     -0.000000
      2.18000     10.90000      0.00000         0.000000      0.000000      0.000000
      2.18000      4.36000      2.18000         0.000000     -0.000000     -0.000000
      2.18000      8.72000      2.18000         0.000000     -0.000000      0.000000
      0.00000      6.54000      2.18000        -0.000000      0.000000      0.000000
      0.00000     10.90000      2.18000         0.000000     -0.000000     -0.000000
      4.36000      4.36000      0.00000        -0.000000     -0.000000     -0.000000
      4.36000      8.72000      0.00000         0.000000     -0.000000     -0.000000
      8.72000      4.36000      0.00000         0.000000     -0.000000      0.000000
      8.72000      8.72000      0.00000        -0.000000     -0.000000     -0.000000
      6.54000      6.54000      0.00000         0.000000     -0.000000     -0.000000
      6.54000     10.90000      0.00000        -0.000000     -0.000000     -0.000000
     10.90000      6.54000      0.00000        -0.000000     -0.000000      0.000000
     10.90000     10.90000      0.00000         0.000000      0.000000     -0.000000
      6.54000      4.36000      2.18000         0.000000     -0.000000     -0.000000
      6.54000      8.72000      2.18000        -0.000000      0.000000     -0.000000
     10.90000      4.36000      2.18000        -0.000000     -0.000000      0.000000
     10.90000      8.72000      2.18000        -0.000000     -0.000000     -0.000000
      4.36000      6.54000      2.18000        -0.000000     -0.000000      0.000000
      4.36000     10.90000      2.18000        -0.000000     -0.000000      0.000000
      8.72000      6.54000      2.18000        -0.000000      0.000000     -0.000000
      8.72000     10.90000      2.18000         0.000000     -0.000000     -0.000000
      0.00000      0.00000      4.36000        -0.000000      0.000000      0.000000
      0.00000      0.00000      8.72000         0.000000     -0.000000      0.000000
      2.18000      2.18000      4.36000        -0.000000      0.000000     -0.000000
      2.18000      2.18000      8.72000        -0.000000      0.000000      0.000000
      2.18000      0.00000      6.54000        -0.000000      0.000000     -0.000000
      2.18000      0.00000     10.90000         0.000000      0.000000      0.000000
      0.00000      2.18000      6.54000         0.000000     -0.000000      0.000000
      0.00000      2.18000     10.90000         0.000000     -0.000000     -0.000000
      4.36000      0.00000      4.36000         0.000000      0.000000     -0.000000
      4.36000      0.00000      8.72000        -0.000000     -0.000000     -0.000000
      8.72000      0.00000      4.36000         0.000000     -0.000000      0.000000
      8.72000      0.00000      8.72000        -0.000000     -0.000000     -0.000000
      6.54000      2.18000      4.36000         0.000000      0.000000     -0.000000
      6.54000      2.18000      8.72000        -0.000000     -0.000000     -0.000000
     10.90000      2.18000      4.36000        -0.000000      0.000000      0.000000
     10.90000      2.18000      8.72000        -0.000000      0.000000     -0.000000
      6.54000      0.00000      6.54000        -0.000000     -0.000000     -0.000000
      6.54000      0.00000     10.90000        -0.000000      0.000000     -0.000000
     10.90000      0.00000      6.54000        -0.000000     -0.000000      0.000000
     10.90000      0.00000     10.90000        -0.000000      0.000000     -0.000000
      4.36000      2.18000      6.54000        -0.000000      0.000000     -0.000000
      4.36000      2.18000     10.90000         0.000000     -0.000000      0.000000
      8.72000      2.18000      6.54000        -0.000000      0.000000     -0.000000
      8.72000      2.18000     10.90000         0.000000      0.000000     -0.000000
[...]
      5.45000      7.63000     11.99000         0.000000     -0.000000      0.000000
      5.45000     11.99000      7.63000         0.000000     -0.000000      0.000000
      5.45000     11.99000     11.99000        -0.000000     -0.000000     -0.000000
      9.81000      7.63000      7.63000        -0.000000      0.000000     -0.000000
      9.81000      7.63000     11.99000        -0.000000      0.000000      0.000000
      9.81000     11.99000      7.63000        -0.000000      0.000000      0.000000
      9.81000     11.99000     11.99000        -0.000000      0.000000      0.000000
      7.63000      5.45000      7.63000         0.000000     -0.000000     -0.000000
      7.63000      5.45000     11.99000         0.000000     -0.000000      0.000000
      7.63000      9.81000      7.63000        -0.000000     -0.000000      0.000000
      7.63000      9.81000     11.99000         0.000000      0.000000      0.000000
     11.99000      5.45000      7.63000        -0.000000      0.000000      0.000000
     11.99000      5.45000     11.99000        -0.000000      0.000000      0.000000
     11.99000      9.81000      7.63000         0.000000     -0.000000     -0.000000
     11.99000      9.81000     11.99000         0.000000     -0.000000      0.000000
    total drift:                                0.000000     -0.000000      0.000005

  FREE ENERGIE OF THE ION-ELECTRON SYSTEM (eV)
  free  energy   TOTEN  =     -1625.62823120 eV

  energy  without entropy=    -1625.62823120  energy(sigma->0) =    -1625.62823120

 reached required accuracy - stopping structural energy minimisation